c "random instance"
p edges 150 2213
e 1 8
e 1 22
e 1 28
e 1 32
e 1 40
e 1 42
e 1 46
e 1 55
e 1 61
e 1 63
e 1 67
e 1 71
e 1 72
e 1 79
e 1 82
e 1 114
e 1 115
e 1 116
e 1 121
e 1 124
e 1 133
e 1 135
e 1 136
e 1 137
e 1 148
e 2 3
e 2 5
e 2 6
e 2 14
e 2 18
e 2 20
e 2 25
e 2 41
e 2 44
e 2 47
e 2 48
e 2 50
e 2 54
e 2 56
e 2 57
e 2 67
e 2 73
e 2 74
e 2 82
e 2 87
e 2 88
e 2 95
e 2 97
e 2 104
e 2 106
e 2 107
e 2 119
e 2 121
e 2 123
e 2 144
e 3 15
e 3 22
e 3 33
e 3 36
e 3 38
e 3 41
e 3 55
e 3 62
e 3 68
e 3 74
e 3 75
e 3 79
e 3 88
e 3 92
e 3 95
e 3 98
e 3 99
e 3 107
e 3 113
e 3 115
e 3 118
e 3 119
e 3 120
e 3 127
e 3 135
e 3 136
e 3 144
e 3 146
e 3 149
e 4 5
e 4 11
e 4 12
e 4 13
e 4 16
e 4 17
e 4 33
e 4 38
e 4 49
e 4 51
e 4 60
e 4 69
e 4 74
e 4 75
e 4 76
e 4 80
e 4 87
e 4 88
e 4 94
e 4 99
e 4 105
e 4 111
e 4 112
e 4 113
e 4 120
e 4 123
e 4 140
e 4 143
e 4 146
e 5 12
e 5 13
e 5 14
e 5 15
e 5 16
e 5 18
e 5 19
e 5 26
e 5 29
e 5 31
e 5 40
e 5 43
e 5 45
e 5 47
e 5 52
e 5 59
e 5 67
e 5 80
e 5 82
e 5 93
e 5 101
e 5 104
e 5 105
e 5 107
e 5 108
e 5 113
e 5 117
e 5 125
e 5 128
e 5 138
e 5 140
e 5 149
e 5 150
e 6 10
e 6 13
e 6 14
e 6 16
e 6 27
e 6 28
e 6 40
e 6 43
e 6 55
e 6 59
e 6 65
e 6 66
e 6 76
e 6 78
e 6 79
e 6 81
e 6 85
e 6 89
e 6 90
e 6 98
e 6 99
e 6 111
e 6 112
e 6 113
e 6 120
e 6 124
e 6 131
e 6 135
e 6 139
e 6 142
e 6 143
e 7 13
e 7 16
e 7 19
e 7 25
e 7 32
e 7 38
e 7 39
e 7 40
e 7 45
e 7 47
e 7 51
e 7 53
e 7 89
e 7 96
e 7 97
e 7 101
e 7 102
e 7 117
e 7 124
e 7 130
e 7 136
e 7 144
e 7 145
e 7 149
e 8 11
e 8 20
e 8 35
e 8 38
e 8 63
e 8 69
e 8 72
e 8 77
e 8 78
e 8 82
e 8 97
e 8 104
e 8 108
e 8 110
e 8 125
e 8 127
e 8 129
e 8 130
e 8 136
e 8 138
e 9 14
e 9 17
e 9 23
e 9 30
e 9 42
e 9 44
e 9 47
e 9 50
e 9 51
e 9 53
e 9 58
e 9 63
e 9 76
e 9 81
e 9 87
e 9 96
e 9 103
e 9 104
e 9 107
e 9 111
e 9 126
e 9 128
e 9 136
e 9 140
e 9 143
e 10 16
e 10 17
e 10 19
e 10 25
e 10 28
e 10 32
e 10 33
e 10 39
e 10 45
e 10 48
e 10 58
e 10 69
e 10 71
e 10 74
e 10 75
e 10 77
e 10 80
e 10 81
e 10 89
e 10 100
e 10 101
e 10 105
e 10 115
e 10 116
e 10 119
e 10 122
e 10 127
e 10 140
e 10 141
e 11 12
e 11 21
e 11 25
e 11 28
e 11 31
e 11 33
e 11 40
e 11 42
e 11 55
e 11 56
e 11 59
e 11 66
e 11 78
e 11 80
e 11 92
e 11 104
e 11 105
e 11 107
e 11 110
e 11 125
e 11 128
e 11 129
e 11 130
e 11 133
e 11 134
e 11 136
e 11 138
e 11 142
e 12 14
e 12 15
e 12 21
e 12 24
e 12 28
e 12 29
e 12 33
e 12 35
e 12 37
e 12 39
e 12 43
e 12 47
e 12 49
e 12 52
e 12 53
e 12 62
e 12 65
e 12 79
e 12 82
e 12 86
e 12 87
e 12 91
e 12 103
e 12 108
e 12 119
e 12 122
e 12 128
e 12 140
e 12 142
e 13 16
e 13 21
e 13 25
e 13 26
e 13 28
e 13 29
e 13 35
e 13 43
e 13 49
e 13 50
e 13 58
e 13 66
e 13 69
e 13 73
e 13 78
e 13 83
e 13 85
e 13 88
e 13 90
e 13 105
e 13 108
e 13 114
e 13 128
e 13 129
e 13 133
e 13 134
e 13 144
e 13 147
e 13 148
e 13 149
e 14 15
e 14 16
e 14 17
e 14 23
e 14 25
e 14 26
e 14 28
e 14 35
e 14 37
e 14 40
e 14 44
e 14 52
e 14 53
e 14 59
e 14 61
e 14 63
e 14 65
e 14 82
e 14 89
e 14 93
e 14 94
e 14 98
e 14 99
e 14 122
e 14 124
e 14 126
e 14 133
e 14 137
e 14 144
e 14 150
e 15 18
e 15 19
e 15 21
e 15 23
e 15 24
e 15 30
e 15 62
e 15 67
e 15 72
e 15 76
e 15 82
e 15 83
e 15 91
e 15 96
e 15 101
e 15 103
e 15 114
e 15 115
e 15 132
e 15 140
e 15 144
e 16 19
e 16 24
e 16 28
e 16 30
e 16 33
e 16 35
e 16 47
e 16 68
e 16 69
e 16 75
e 16 76
e 16 77
e 16 82
e 16 84
e 16 88
e 16 99
e 16 103
e 16 105
e 16 108
e 16 109
e 16 118
e 16 119
e 16 120
e 16 123
e 16 132
e 16 138
e 16 143
e 16 146
e 17 20
e 17 22
e 17 23
e 17 25
e 17 27
e 17 29
e 17 41
e 17 52
e 17 56
e 17 58
e 17 59
e 17 60
e 17 68
e 17 71
e 17 73
e 17 80
e 17 83
e 17 98
e 17 101
e 17 107
e 17 108
e 17 112
e 17 116
e 17 119
e 17 126
e 17 128
e 17 131
e 17 141
e 17 147
e 18 22
e 18 27
e 18 31
e 18 36
e 18 37
e 18 44
e 18 48
e 18 49
e 18 55
e 18 76
e 18 82
e 18 85
e 18 88
e 18 93
e 18 96
e 18 99
e 18 104
e 18 106
e 18 111
e 18 121
e 18 125
e 18 128
e 18 142
e 18 145
e 18 149
e 19 25
e 19 35
e 19 38
e 19 44
e 19 52
e 19 55
e 19 61
e 19 70
e 19 73
e 19 75
e 19 77
e 19 78
e 19 89
e 19 92
e 19 96
e 19 98
e 19 99
e 19 109
e 19 115
e 19 121
e 19 132
e 19 142
e 19 143
e 19 146
e 20 27
e 20 30
e 20 35
e 20 38
e 20 42
e 20 43
e 20 44
e 20 47
e 20 50
e 20 53
e 20 55
e 20 56
e 20 58
e 20 59
e 20 60
e 20 61
e 20 73
e 20 75
e 20 79
e 20 82
e 20 91
e 20 95
e 20 99
e 20 102
e 20 107
e 20 108
e 20 116
e 20 125
e 20 131
e 21 22
e 21 25
e 21 27
e 21 29
e 21 34
e 21 42
e 21 45
e 21 62
e 21 63
e 21 64
e 21 66
e 21 70
e 21 71
e 21 81
e 21 88
e 21 92
e 21 103
e 21 105
e 21 107
e 21 111
e 21 113
e 21 115
e 21 117
e 21 123
e 21 124
e 21 126
e 21 133
e 21 134
e 21 135
e 21 139
e 22 24
e 22 34
e 22 36
e 22 52
e 22 67
e 22 72
e 22 74
e 22 76
e 22 77
e 22 86
e 22 95
e 22 100
e 22 103
e 22 106
e 22 112
e 22 113
e 22 123
e 22 126
e 22 131
e 22 138
e 22 143
e 22 147
e 23 29
e 23 49
e 23 58
e 23 59
e 23 60
e 23 62
e 23 72
e 23 73
e 23 78
e 23 85
e 23 92
e 23 103
e 23 104
e 23 116
e 23 117
e 23 121
e 23 127
e 23 133
e 23 139
e 24 25
e 24 31
e 24 56
e 24 58
e 24 62
e 24 66
e 24 68
e 24 73
e 24 97
e 24 103
e 24 125
e 24 129
e 24 135
e 24 140
e 24 144
e 24 149
e 25 28
e 25 32
e 25 35
e 25 39
e 25 42
e 25 43
e 25 44
e 25 50
e 25 58
e 25 63
e 25 77
e 25 78
e 25 88
e 25 91
e 25 93
e 25 100
e 25 101
e 25 106
e 25 111
e 25 113
e 25 127
e 25 130
e 25 131
e 25 133
e 25 143
e 26 31
e 26 33
e 26 39
e 26 40
e 26 44
e 26 47
e 26 54
e 26 56
e 26 65
e 26 72
e 26 80
e 26 81
e 26 84
e 26 89
e 26 98
e 26 103
e 26 109
e 26 112
e 26 114
e 26 121
e 26 122
e 26 129
e 26 131
e 26 135
e 26 143
e 26 150
e 27 31
e 27 32
e 27 46
e 27 51
e 27 55
e 27 62
e 27 63
e 27 79
e 27 81
e 27 86
e 27 89
e 27 91
e 27 100
e 27 101
e 27 113
e 27 115
e 27 118
e 27 120
e 27 124
e 27 144
e 27 149
e 28 66
e 28 71
e 28 75
e 28 86
e 28 88
e 28 91
e 28 104
e 28 111
e 28 115
e 28 117
e 28 122
e 28 124
e 28 125
e 28 133
e 28 138
e 28 140
e 28 144
e 28 150
e 29 32
e 29 34
e 29 41
e 29 57
e 29 59
e 29 60
e 29 66
e 29 67
e 29 68
e 29 71
e 29 73
e 29 74
e 29 75
e 29 78
e 29 83
e 29 91
e 29 94
e 29 96
e 29 100
e 29 101
e 29 107
e 29 114
e 29 116
e 29 118
e 29 123
e 29 125
e 29 135
e 29 137
e 29 139
e 29 144
e 29 145
e 29 148
e 29 150
e 30 31
e 30 33
e 30 35
e 30 37
e 30 39
e 30 46
e 30 50
e 30 52
e 30 57
e 30 58
e 30 60
e 30 61
e 30 62
e 30 63
e 30 72
e 30 73
e 30 79
e 30 82
e 30 87
e 30 94
e 30 97
e 30 105
e 30 115
e 30 116
e 30 137
e 30 143
e 30 146
e 30 148
e 31 33
e 31 36
e 31 38
e 31 43
e 31 44
e 31 45
e 31 47
e 31 48
e 31 62
e 31 71
e 31 74
e 31 78
e 31 81
e 31 89
e 31 93
e 31 99
e 31 100
e 31 103
e 31 105
e 31 113
e 31 119
e 31 134
e 31 137
e 31 139
e 32 33
e 32 36
e 32 41
e 32 52
e 32 56
e 32 57
e 32 59
e 32 62
e 32 63
e 32 68
e 32 71
e 32 73
e 32 77
e 32 80
e 32 91
e 32 96
e 32 103
e 32 115
e 32 120
e 32 121
e 32 123
e 32 128
e 32 134
e 32 135
e 32 139
e 32 145
e 33 35
e 33 41
e 33 49
e 33 54
e 33 60
e 33 66
e 33 81
e 33 82
e 33 98
e 33 104
e 33 107
e 33 110
e 33 112
e 33 115
e 33 121
e 33 122
e 33 123
e 33 130
e 33 142
e 33 143
e 33 144
e 34 36
e 34 38
e 34 39
e 34 41
e 34 42
e 34 47
e 34 48
e 34 50
e 34 61
e 34 68
e 34 85
e 34 90
e 34 97
e 34 98
e 34 99
e 34 103
e 34 104
e 34 111
e 34 114
e 34 116
e 34 117
e 34 119
e 34 125
e 34 130
e 34 133
e 34 135
e 34 136
e 34 143
e 34 145
e 34 146
e 34 148
e 35 37
e 35 45
e 35 48
e 35 56
e 35 60
e 35 65
e 35 66
e 35 73
e 35 74
e 35 75
e 35 76
e 35 79
e 35 80
e 35 87
e 35 96
e 35 100
e 35 108
e 35 110
e 35 111
e 35 113
e 35 116
e 35 117
e 35 124
e 35 127
e 35 134
e 35 139
e 35 148
e 36 40
e 36 50
e 36 58
e 36 59
e 36 61
e 36 63
e 36 74
e 36 80
e 36 85
e 36 87
e 36 88
e 36 89
e 36 92
e 36 93
e 36 103
e 36 104
e 36 114
e 36 119
e 36 124
e 36 137
e 36 139
e 36 149
e 37 43
e 37 49
e 37 61
e 37 63
e 37 66
e 37 81
e 37 82
e 37 87
e 37 93
e 37 102
e 37 104
e 37 105
e 37 119
e 37 122
e 37 129
e 37 131
e 37 136
e 37 138
e 38 46
e 38 49
e 38 51
e 38 52
e 38 59
e 38 61
e 38 62
e 38 65
e 38 67
e 38 69
e 38 77
e 38 81
e 38 93
e 38 94
e 38 95
e 38 100
e 38 104
e 38 108
e 38 109
e 38 116
e 38 120
e 38 127
e 38 135
e 38 136
e 38 137
e 38 150
e 39 56
e 39 62
e 39 65
e 39 71
e 39 76
e 39 84
e 39 86
e 39 91
e 39 102
e 39 111
e 39 112
e 39 115
e 39 118
e 39 119
e 39 123
e 39 124
e 39 126
e 39 127
e 39 132
e 39 134
e 39 145
e 39 147
e 39 148
e 39 150
e 40 41
e 40 43
e 40 65
e 40 78
e 40 88
e 40 90
e 40 98
e 40 100
e 40 104
e 40 108
e 40 118
e 40 130
e 40 132
e 40 136
e 40 138
e 40 148
e 41 47
e 41 56
e 41 74
e 41 87
e 41 94
e 41 96
e 41 115
e 41 118
e 41 122
e 41 124
e 41 135
e 41 142
e 41 144
e 41 146
e 42 48
e 42 64
e 42 72
e 42 75
e 42 78
e 42 81
e 42 83
e 42 84
e 42 85
e 42 87
e 42 90
e 42 96
e 42 110
e 42 114
e 42 116
e 42 118
e 42 119
e 42 125
e 42 135
e 42 144
e 42 149
e 43 45
e 43 53
e 43 54
e 43 56
e 43 76
e 43 91
e 43 93
e 43 94
e 43 97
e 43 98
e 43 102
e 43 105
e 43 110
e 43 112
e 43 119
e 43 122
e 43 135
e 43 137
e 43 139
e 44 46
e 44 48
e 44 57
e 44 68
e 44 73
e 44 77
e 44 78
e 44 79
e 44 85
e 44 86
e 44 93
e 44 97
e 44 100
e 44 112
e 44 115
e 44 117
e 44 121
e 44 122
e 44 126
e 44 133
e 44 145
e 45 46
e 45 48
e 45 55
e 45 57
e 45 61
e 45 64
e 45 72
e 45 75
e 45 78
e 45 85
e 45 99
e 45 110
e 45 112
e 45 113
e 45 115
e 45 118
e 45 122
e 45 129
e 45 132
e 45 140
e 45 142
e 45 149
e 45 150
e 46 47
e 46 51
e 46 54
e 46 55
e 46 56
e 46 64
e 46 66
e 46 78
e 46 80
e 46 81
e 46 89
e 46 99
e 46 109
e 46 110
e 46 123
e 46 127
e 46 133
e 46 135
e 46 136
e 46 137
e 46 138
e 46 149
e 47 67
e 47 70
e 47 81
e 47 91
e 47 96
e 47 99
e 47 110
e 47 115
e 47 132
e 47 139
e 47 144
e 47 147
e 47 149
e 48 53
e 48 78
e 48 102
e 48 106
e 48 107
e 48 112
e 48 135
e 48 140
e 48 145
e 49 50
e 49 56
e 49 58
e 49 61
e 49 71
e 49 72
e 49 73
e 49 80
e 49 90
e 49 100
e 49 101
e 49 102
e 49 108
e 49 112
e 49 115
e 49 117
e 49 118
e 49 120
e 49 122
e 49 124
e 49 128
e 49 129
e 49 133
e 49 137
e 49 142
e 49 145
e 49 147
e 50 51
e 50 52
e 50 53
e 50 54
e 50 62
e 50 63
e 50 67
e 50 68
e 50 70
e 50 76
e 50 79
e 50 81
e 50 84
e 50 92
e 50 98
e 50 100
e 50 106
e 50 113
e 50 120
e 50 121
e 50 128
e 50 130
e 50 133
e 50 140
e 51 56
e 51 58
e 51 64
e 51 72
e 51 75
e 51 96
e 51 101
e 51 107
e 51 108
e 51 117
e 51 121
e 51 127
e 51 132
e 51 133
e 51 134
e 51 139
e 51 141
e 51 146
e 52 56
e 52 58
e 52 60
e 52 64
e 52 70
e 52 72
e 52 74
e 52 78
e 52 85
e 52 88
e 52 92
e 52 101
e 52 108
e 52 115
e 52 131
e 52 133
e 52 146
e 52 147
e 52 149
e 53 58
e 53 61
e 53 66
e 53 69
e 53 75
e 53 77
e 53 78
e 53 82
e 53 83
e 53 97
e 53 106
e 53 108
e 53 117
e 53 125
e 53 126
e 53 128
e 53 130
e 53 136
e 53 137
e 54 64
e 54 68
e 54 74
e 54 77
e 54 86
e 54 87
e 54 94
e 54 97
e 54 103
e 54 108
e 54 110
e 54 113
e 54 115
e 54 120
e 54 130
e 54 131
e 54 136
e 54 139
e 54 141
e 54 143
e 54 144
e 54 145
e 54 148
e 55 69
e 55 71
e 55 73
e 55 77
e 55 84
e 55 86
e 55 88
e 55 92
e 55 98
e 55 99
e 55 100
e 55 116
e 55 128
e 55 130
e 55 131
e 55 133
e 55 135
e 55 137
e 55 144
e 56 60
e 56 62
e 56 65
e 56 69
e 56 72
e 56 73
e 56 77
e 56 82
e 56 95
e 56 96
e 56 97
e 56 101
e 56 102
e 56 103
e 56 105
e 56 111
e 56 112
e 56 114
e 56 123
e 56 125
e 56 139
e 56 146
e 57 61
e 57 64
e 57 72
e 57 73
e 57 75
e 57 81
e 57 83
e 57 84
e 57 87
e 57 92
e 57 97
e 57 98
e 57 105
e 57 113
e 57 114
e 57 116
e 57 126
e 57 135
e 57 136
e 57 141
e 57 144
e 57 145
e 58 60
e 58 65
e 58 74
e 58 76
e 58 84
e 58 86
e 58 90
e 58 92
e 58 95
e 58 103
e 58 108
e 58 117
e 58 125
e 58 127
e 58 135
e 58 136
e 58 138
e 58 144
e 58 150
e 59 60
e 59 63
e 59 69
e 59 70
e 59 77
e 59 84
e 59 93
e 59 94
e 59 95
e 59 96
e 59 118
e 59 125
e 59 132
e 59 133
e 59 134
e 59 138
e 59 141
e 59 146
e 60 61
e 60 67
e 60 70
e 60 71
e 60 73
e 60 74
e 60 77
e 60 79
e 60 81
e 60 92
e 60 105
e 60 110
e 60 112
e 60 115
e 60 117
e 60 119
e 60 120
e 60 134
e 60 135
e 60 147
e 61 63
e 61 70
e 61 78
e 61 80
e 61 81
e 61 85
e 61 100
e 61 101
e 61 103
e 61 110
e 61 113
e 61 117
e 61 118
e 61 125
e 61 126
e 61 131
e 61 134
e 61 137
e 61 138
e 61 141
e 61 142
e 61 143
e 61 146
e 62 72
e 62 89
e 62 92
e 62 107
e 62 124
e 62 125
e 62 129
e 62 135
e 62 142
e 62 147
e 62 150
e 63 65
e 63 70
e 63 75
e 63 77
e 63 80
e 63 83
e 63 85
e 63 89
e 63 95
e 63 100
e 63 101
e 63 104
e 63 110
e 63 113
e 63 114
e 63 123
e 63 132
e 63 140
e 63 141
e 63 142
e 63 144
e 63 148
e 63 149
e 64 67
e 64 68
e 64 77
e 64 84
e 64 90
e 64 92
e 64 102
e 64 104
e 64 109
e 64 121
e 64 124
e 64 137
e 64 138
e 64 142
e 64 143
e 65 75
e 65 81
e 65 84
e 65 91
e 65 98
e 65 101
e 65 103
e 65 110
e 65 116
e 65 122
e 65 124
e 65 126
e 65 128
e 65 134
e 65 148
e 65 150
e 66 68
e 66 73
e 66 74
e 66 82
e 66 95
e 66 96
e 66 100
e 66 103
e 66 110
e 66 117
e 66 127
e 66 130
e 66 134
e 66 135
e 66 140
e 66 146
e 66 147
e 67 73
e 67 76
e 67 77
e 67 82
e 67 84
e 67 87
e 67 89
e 67 103
e 67 106
e 67 112
e 67 113
e 67 117
e 67 122
e 67 124
e 67 128
e 67 134
e 67 145
e 67 146
e 67 148
e 67 150
e 68 71
e 68 73
e 68 74
e 68 77
e 68 86
e 68 91
e 68 101
e 68 104
e 68 106
e 68 108
e 68 110
e 68 112
e 68 114
e 68 119
e 68 124
e 68 127
e 68 129
e 68 132
e 68 135
e 68 140
e 69 72
e 69 80
e 69 85
e 69 86
e 69 87
e 69 88
e 69 103
e 69 104
e 69 107
e 69 111
e 69 118
e 69 122
e 69 125
e 69 128
e 69 133
e 69 134
e 69 138
e 69 142
e 69 144
e 69 145
e 69 147
e 69 150
e 70 72
e 70 82
e 70 102
e 70 104
e 70 106
e 70 108
e 70 114
e 70 116
e 70 125
e 70 128
e 70 132
e 70 137
e 71 77
e 71 78
e 71 80
e 71 81
e 71 82
e 71 84
e 71 87
e 71 88
e 71 94
e 71 104
e 71 124
e 71 127
e 71 128
e 71 133
e 71 135
e 71 137
e 71 139
e 71 141
e 71 147
e 71 148
e 71 150
e 72 76
e 72 84
e 72 92
e 72 96
e 72 97
e 72 98
e 72 102
e 72 103
e 72 107
e 72 108
e 72 109
e 72 112
e 72 123
e 72 127
e 72 128
e 72 129
e 72 136
e 72 141
e 72 149
e 73 77
e 73 86
e 73 95
e 73 98
e 73 101
e 73 116
e 73 139
e 74 80
e 74 84
e 74 85
e 74 87
e 74 93
e 74 94
e 74 95
e 74 96
e 74 97
e 74 100
e 74 106
e 74 110
e 74 113
e 74 128
e 74 131
e 74 132
e 74 138
e 74 144
e 74 145
e 74 148
e 75 79
e 75 81
e 75 83
e 75 84
e 75 85
e 75 89
e 75 95
e 75 97
e 75 100
e 75 101
e 75 110
e 75 111
e 75 113
e 75 138
e 75 142
e 76 84
e 76 86
e 76 91
e 76 93
e 76 97
e 76 100
e 76 106
e 76 107
e 76 109
e 76 124
e 76 128
e 76 131
e 76 141
e 76 142
e 77 83
e 77 92
e 77 94
e 77 106
e 77 113
e 77 117
e 77 118
e 77 129
e 77 133
e 77 138
e 77 141
e 77 143
e 77 144
e 77 146
e 78 82
e 78 83
e 78 86
e 78 90
e 78 93
e 78 99
e 78 107
e 78 112
e 78 131
e 78 133
e 78 135
e 78 139
e 78 140
e 78 149
e 79 80
e 79 81
e 79 83
e 79 92
e 79 102
e 79 109
e 79 113
e 79 117
e 79 119
e 79 121
e 79 124
e 79 125
e 79 130
e 79 131
e 79 132
e 79 135
e 79 137
e 79 142
e 79 144
e 80 83
e 80 85
e 80 86
e 80 101
e 80 102
e 80 104
e 80 110
e 80 119
e 80 121
e 80 123
e 80 124
e 80 133
e 80 134
e 80 142
e 80 144
e 80 148
e 80 150
e 81 95
e 81 109
e 81 117
e 81 118
e 81 121
e 81 124
e 81 127
e 81 128
e 81 129
e 81 130
e 81 133
e 81 135
e 81 137
e 81 149
e 82 87
e 82 88
e 82 105
e 82 109
e 82 114
e 82 116
e 82 117
e 82 131
e 82 139
e 82 140
e 82 141
e 82 147
e 82 150
e 83 85
e 83 97
e 83 99
e 83 109
e 83 113
e 83 114
e 83 117
e 83 125
e 83 130
e 83 134
e 83 139
e 84 115
e 84 116
e 84 120
e 84 121
e 84 123
e 84 128
e 84 130
e 84 132
e 84 135
e 84 139
e 84 141
e 85 90
e 85 102
e 85 113
e 85 114
e 85 120
e 85 123
e 85 124
e 85 127
e 85 137
e 85 142
e 85 146
e 86 89
e 86 95
e 86 97
e 86 98
e 86 99
e 86 117
e 86 120
e 86 127
e 86 130
e 86 132
e 86 133
e 86 139
e 86 149
e 87 89
e 87 91
e 87 98
e 87 115
e 87 116
e 87 117
e 87 122
e 87 129
e 87 133
e 87 141
e 87 142
e 87 143
e 87 148
e 88 96
e 88 111
e 88 113
e 88 117
e 88 125
e 88 131
e 88 134
e 88 141
e 88 143
e 89 103
e 89 109
e 89 114
e 89 132
e 89 133
e 89 134
e 89 141
e 89 147
e 90 91
e 90 93
e 90 94
e 90 99
e 90 109
e 90 110
e 90 112
e 90 119
e 90 122
e 90 125
e 90 129
e 90 136
e 90 143
e 91 101
e 91 117
e 91 118
e 91 119
e 91 121
e 91 132
e 91 134
e 91 136
e 91 142
e 91 147
e 92 94
e 92 97
e 92 105
e 92 110
e 92 111
e 92 125
e 92 126
e 92 128
e 92 131
e 92 141
e 92 144
e 92 150
e 93 99
e 93 103
e 93 107
e 93 123
e 93 127
e 93 133
e 93 134
e 93 135
e 93 136
e 93 144
e 93 147
e 93 149
e 94 100
e 94 108
e 94 109
e 94 110
e 94 113
e 94 114
e 94 118
e 94 119
e 94 123
e 94 125
e 94 126
e 94 127
e 94 134
e 94 141
e 95 100
e 95 130
e 95 136
e 95 144
e 96 103
e 96 115
e 96 120
e 96 126
e 96 130
e 96 132
e 96 141
e 96 146
e 97 99
e 97 117
e 97 129
e 97 132
e 97 133
e 97 137
e 97 141
e 97 144
e 97 147
e 98 116
e 98 120
e 98 123
e 98 129
e 98 132
e 98 140
e 98 143
e 98 144
e 98 146
e 99 115
e 99 119
e 99 123
e 99 126
e 99 133
e 99 139
e 99 142
e 99 148
e 100 104
e 100 111
e 100 113
e 100 131
e 100 138
e 100 139
e 101 103
e 101 109
e 101 110
e 101 114
e 101 121
e 101 130
e 101 137
e 101 142
e 101 147
e 102 106
e 102 111
e 102 112
e 102 114
e 102 124
e 102 128
e 102 129
e 102 130
e 102 136
e 102 143
e 102 149
e 103 108
e 103 113
e 103 123
e 103 138
e 103 141
e 103 143
e 103 146
e 103 150
e 104 108
e 104 119
e 104 122
e 104 123
e 104 128
e 104 133
e 104 142
e 104 143
e 104 144
e 104 145
e 105 113
e 105 116
e 105 120
e 105 124
e 105 140
e 106 108
e 106 112
e 106 114
e 106 123
e 106 125
e 106 128
e 106 131
e 106 133
e 106 135
e 106 137
e 106 140
e 106 148
e 107 108
e 107 109
e 107 110
e 107 119
e 107 121
e 107 122
e 107 123
e 107 125
e 107 129
e 107 130
e 107 133
e 107 141
e 107 142
e 107 150
e 108 121
e 108 124
e 108 129
e 109 115
e 109 129
e 109 130
e 109 132
e 109 133
e 109 134
e 109 136
e 109 142
e 109 146
e 109 149
e 110 111
e 110 115
e 110 119
e 110 125
e 110 127
e 110 132
e 110 134
e 110 142
e 110 143
e 110 145
e 111 120
e 111 125
e 111 137
e 111 138
e 111 139
e 111 140
e 111 148
e 112 114
e 112 115
e 112 116
e 112 124
e 112 126
e 112 127
e 112 131
e 112 132
e 112 137
e 112 141
e 112 144
e 113 114
e 113 123
e 113 130
e 113 137
e 113 145
e 114 116
e 114 122
e 114 126
e 114 131
e 114 134
e 115 122
e 115 132
e 115 135
e 115 137
e 115 139
e 115 141
e 115 144
e 116 122
e 116 133
e 116 137
e 116 147
e 117 118
e 117 132
e 117 144
e 117 146
e 117 149
e 118 122
e 118 126
e 118 127
e 118 128
e 118 129
e 118 131
e 118 135
e 118 146
e 118 147
e 118 149
e 119 122
e 119 123
e 119 124
e 119 125
e 119 127
e 119 141
e 119 146
e 119 147
e 119 150
e 120 122
e 120 130
e 120 133
e 120 134
e 120 146
e 120 147
e 120 150
e 121 122
e 121 125
e 121 131
e 121 139
e 121 142
e 121 149
e 122 128
e 122 132
e 122 134
e 122 139
e 122 147
e 122 149
e 123 131
e 123 138
e 123 141
e 123 144
e 123 147
e 123 149
e 124 126
e 124 128
e 124 134
e 124 138
e 124 146
e 125 129
e 125 137
e 125 139
e 125 140
e 126 137
e 126 143
e 126 144
e 126 147
e 126 150
e 127 135
e 127 137
e 127 138
e 127 144
e 127 145
e 127 150
e 128 132
e 128 135
e 128 136
e 128 140
e 128 141
e 128 144
e 129 135
e 129 140
e 129 150
e 130 145
e 130 149
e 131 135
e 131 137
e 131 142
e 131 143
e 131 148
e 131 149
e 132 136
e 132 140
e 132 143
e 132 150
e 133 135
e 133 137
e 133 141
e 133 147
e 133 148
e 133 149
e 134 137
e 134 144
e 134 145
e 135 137
e 135 139
e 135 141
e 136 142
e 137 141
e 137 145
e 138 143
e 139 142
e 139 144
e 139 145
e 139 148
e 139 149
e 141 143
e 143 148
e 143 149
e 143 150
e 144 147
e 144 149
e 144 150
e 145 149
e 146 148
e 146 149
e 148 149
